Version identifier: 20.1.0.0 | 2020-11-10 | 9bedb6d68
CPXPARAM_Threads                                 1
CPXPARAM_TimeLimit                               7200
CPXPARAM_MIP_Tolerances_MIPGap                   0
Generic callback                                 0x60
1 of 1 MIP starts provided solutions.
MIP start 'm1' defined initial solution with objective 2178.9578.
Tried aggregator 1 time.
Reduced MIP has 1 rows, 801 columns, and 800 nonzeros.
Reduced MIP has 800 binaries, 0 generals, 0 SOSs, and 0 indicators.
Presolve time = 0.00 sec. (0.24 ticks)
Probing time = 0.00 sec. (0.09 ticks)
Tried aggregator 1 time.
Reduced MIP has 1 rows, 801 columns, and 800 nonzeros.
Reduced MIP has 800 binaries, 0 generals, 0 SOSs, and 0 indicators.
Presolve time = 0.00 sec. (0.25 ticks)
Probing time = 0.00 sec. (0.09 ticks)
MIP emphasis: balance optimality and feasibility.
MIP search method: dynamic search.
Parallel mode: none, using 1 thread.
Root relaxation solution time = 0.00 sec. (0.17 ticks)

        Nodes                                         Cuts/
   Node  Left     Objective  IInf  Best Integer    Best Bound    ItCnt     Gap

*     0+    0                         2178.9578     4368.0000           100.46%
      0     0     3065.4165     2     2178.9578     4368.0000        0  100.46%
      0     0     2676.7288     3     2178.9578 UserPurge2: 1        5   22.84%
      0     0     2631.9165     5     2178.9578 UserPurge2: 1       11   20.79%
      0     0     2446.1574     5     2178.9578 UserPurge2: 1       25   12.26%
      0     0     2424.1327     7     2178.9578 UserPurge2: 1       34   11.25%
      0     0     2413.2908     8     2178.9578 UserPurge2: 1       46   10.75%
      0     0     2393.5721     8     2178.9578 UserPurge2: 1       65    9.85%
      0     0     2372.0030     9     2178.9578 UserPurge2: 1       73    8.86%
      0     0     2357.4399    11     2178.9578 UserPurge2: 1       93    8.19%
      0     0     2341.6932    12     2178.9578 UserPurge2: 1      128    7.47%
      0     0     2333.0742    13     2178.9578 UserPurge2: 1      156    7.07%
      0     0     2328.2550    15     2178.9578 UserPurge1: 1      164    6.85%
      0     0     2318.7877    14     2178.9578 UserPurge2: 1      189    6.42%
      0     0     2312.1607    15     2178.9578 UserPurge2: 1      209    6.11%
      0     0     2308.3885    16     2178.9578 UserPurge2: 1      240    5.94%
      0     0     2307.3998    18     2178.9578 UserPurge1: 1      250    5.89%
      0     0     2300.8719    18     2178.9578 UserPurge2: 1      277    5.60%
      0     0     2295.0463    18     2178.9578 UserPurge2: 1      326    5.33%
      0     0     2292.1203    17     2178.9578 UserPurge2: 1      352    5.19%
      0     0     2288.7442    17     2178.9578 UserPurge2: 1      375    5.04%
      0     0     2283.8798    16     2178.9578 UserPurge2: 1      408    4.82%
      0     0     2281.5124    17     2178.9578 UserPurge1: 2      426    4.71%
      0     0     2280.1948    17     2178.9578 UserPurge2: 1      449    4.65%
      0     0     2280.1482    18     2178.9578 UserPurge1: 1      455    4.64%
      0     0     2279.2050    19     2178.9578 UserPurge2: 1      475    4.60%
      0     0     2275.9466    18     2178.9578 UserPurge2: 1      510    4.45%
      0     0     2273.2910    16     2178.9578 UserPurge2: 1      524    4.33%
      0     0     2271.5436    17     2178.9578 UserPurge2: 1      553    4.25%
      0     0     2268.1464    15     2178.9578 UserPurge2: 1      572    4.09%
      0     0     2266.6478    16     2178.9578 UserPurge2: 1      600    4.02%
      0     0     2264.1226    16     2178.9578 UserPurge2: 1      631    3.91%
      0     0     2262.2277    17     2178.9578 UserPurge2: 1      651    3.82%
      0     0     2260.3272    17     2178.9578 UserPurge2: 1      670    3.73%
      0     0     2259.1311    18     2178.9578 UserPurge2: 1      700    3.68%
      0     0     2257.4232    18     2178.9578 UserPurge2: 1      725    3.60%
      0     0     2256.1746    18     2178.9578 UserPurge2: 1      745    3.54%
      0     0     2253.3910    17     2178.9578 UserPurge2: 1      775    3.42%
      0     0     2251.6789    16     2178.9578 UserPurge2: 1      801    3.34%
      0     0     2250.1138    17     2178.9578 UserPurge2: 1      824    3.27%
      0     0     2249.3193    17     2178.9578 UserPurge2: 1      843    3.23%
      0     0     2248.4292    17     2178.9578 UserPurge2: 1      870    3.19%
      0     0     2247.2336    17     2178.9578 UserPurge2: 1      893    3.13%
      0     0     2246.7046    19     2178.9578 UserPurge2: 1      909    3.11%
      0     0     2246.2563    18     2178.9578 UserPurge2: 1      929    3.09%
      0     0     2245.2857    18     2178.9578 UserPurge2: 1      958    3.04%
      0     0     2244.7717    20     2178.9578 UserPurge2: 1      972    3.02%
      0     0     2243.0517    18     2178.9578 UserPurge2: 1     1005    2.94%
      0     0     2242.4444    18     2178.9578 UserPurge2: 1     1021    2.91%
      0     0     2242.0780    18     2178.9578 UserPurge2: 1     1030    2.90%
      0     0     2241.8208    19     2178.9578 UserPurge2: 1     1038    2.89%
      0     0     2239.7319    18     2178.9578 UserPurge2: 1     1071    2.79%
      0     0     2239.1558    18     2178.9578 UserPurge2: 1     1097    2.76%
      0     0     2238.4330    19     2178.9578 UserPurge2: 1     1118    2.73%
      0     0     2237.9404    19     2178.9578 UserPurge2: 1     1139    2.71%
      0     0     2237.6430    20     2178.9578 UserPurge2: 1     1160    2.69%
      0     0     2236.1548    19     2178.9578 UserPurge2: 1     1197    2.62%
      0     0     2235.1967    19     2178.9578 UserPurge2: 1     1228    2.58%
      0     0     2234.7429    18     2178.9578 UserPurge2: 1     1245    2.56%
      0     0     2233.7293    19     2178.9578 UserPurge2: 1     1274    2.51%
      0     0     2233.1537    20     2178.9578 UserPurge2: 1     1292    2.49%
      0     0     2232.4294    20     2178.9578 UserPurge2: 1     1309    2.45%
      0     0     2231.7907    20     2178.9578 UserPurge2: 1     1342    2.42%
      0     0     2231.2273    21     2178.9578 UserPurge2: 1     1366    2.40%
      0     0     2231.0280    22     2178.9578 UserPurge2: 1     1383    2.39%
      0     0     2230.4990    22     2178.9578 UserPurge2: 1     1413    2.37%
      0     0     2229.5751    21     2178.9578 UserPurge2: 1     1441    2.32%
      0     0     2228.8421    20     2178.9578 UserPurge2: 1     1464    2.29%
      0     0     2227.3799    21     2178.9578 UserPurge2: 1     1492    2.22%
      0     0     2226.4385    22     2178.9578 UserPurge2: 1     1519    2.18%
      0     0     2225.2945    21     2178.9578 UserPurge2: 1     1554    2.13%
      0     0     2224.3827    21     2178.9578 UserPurge2: 1     1585    2.08%
      0     0     2223.5547    20     2178.9578 UserPurge2: 1     1621    2.05%
      0     0     2223.2555    21     2178.9578 UserPurge2: 1     1637    2.03%
      0     0     2222.1443    21     2178.9578 UserPurge2: 1     1681    1.98%
      0     0     2221.2260    22     2178.9578 UserPurge2: 1     1705    1.94%
      0     0     2220.9675    22     2178.9578 UserPurge2: 1     1712    1.93%
      0     0     2220.4369    22     2178.9578 UserPurge2: 1     1735    1.90%
      0     0     2219.6843    21     2178.9578 UserPurge2: 1     1760    1.87%
      0     0     2219.2152    22     2178.9578 UserPurge2: 1     1775    1.85%
      0     0     2218.7133    21     2178.9578 UserPurge2: 1     1792    1.82%
      0     0     2218.5980    22     2178.9578 UserPurge2: 1     1802    1.82%
      0     0     2218.3814    23     2178.9578 UserPurge2: 1     1813    1.81%
      0     0     2217.7790    21     2178.9578 UserPurge2: 1     1842    1.78%
      0     0     2217.5481    22     2178.9578 UserPurge2: 1     1854    1.77%
      0     0     2217.0524    22     2178.9578 UserPurge2: 1     1884    1.75%
      0     0     2216.7927    23     2178.9578 UserPurge2: 1     1912    1.74%
      0     0     2216.3932    24     2178.9578 UserPurge2: 1     1935    1.72%
      0     0     2215.7706    23     2178.9578 UserPurge2: 1     1960    1.69%
      0     0     2215.6500    24     2178.9578 UserPurge2: 1     1972    1.68%
      0     0     2215.3599    24     2178.9578 UserPurge2: 1     1992    1.67%
      0     0     2215.0485    24     2178.9578 UserPurge2: 1     2019    1.66%
      0     0     2214.6463    25     2178.9578 UserPurge2: 1     2063    1.64%
      0     0     2214.1931    25     2178.9578 UserPurge2: 1     2089    1.62%
      0     0     2213.6082    24     2178.9578 UserPurge2: 1     2120    1.59%
      0     0     2212.7728    22     2178.9578 UserPurge2: 1     2146    1.55%
      0     0     2212.6284    22     2178.9578 UserPurge2: 1     2163    1.55%
      0     0     2212.2711    22     2178.9578 UserPurge2: 1     2189    1.53%
      0     0     2212.1283    23     2178.9578 UserPurge2: 1     2206    1.52%
      0     0     2211.9316    24     2178.9578 UserPurge2: 1     2235    1.51%
      0     0     2211.6402    23     2178.9578 UserPurge2: 1     2263    1.50%
      0     0     2211.4039    23     2178.9578 UserPurge2: 1     2287    1.49%
      0     0     2211.1390    23     2178.9578 UserPurge2: 1     2311    1.48%
      0     0     2211.0696    24     2178.9578 UserPurge2: 1     2326    1.47%
      0     0     2210.8815    25     2178.9578 UserPurge2: 1     2363    1.47%
      0     0     2210.7569    26     2178.9578 UserPurge2: 1     2388    1.46%
      0     0     2210.4372    26     2178.9578 UserPurge2: 1     2415    1.44%
      0     0     2210.1389    26     2178.9578 UserPurge2: 1     2443    1.43%
      0     0     2210.0355    26     2178.9578 UserPurge2: 1     2464    1.43%
      0     0     2209.7832    26     2178.9578 UserPurge2: 1     2485    1.41%
      0     0     2209.2298    26     2178.9578 UserPurge2: 1     2520    1.39%
      0     0     2208.6819    23     2178.9578 UserPurge2: 1     2564    1.36%
      0     0     2208.5499    24     2178.9578 UserPurge2: 1     2575    1.36%
      0     0     2208.4634    24     2178.9578 UserPurge2: 1     2593    1.35%
      0     0     2208.3435    25     2178.9578 UserPurge2: 1     2610    1.35%
      0     0     2208.0430    25     2178.9578 UserPurge2: 1     2644    1.33%
      0     0     2207.3280    23     2178.9578 UserPurge2: 1     2687    1.30%
      0     0     2207.2563    24     2178.9578 UserPurge2: 1     2708    1.30%
      0     0     2207.1980    25     2178.9578 UserPurge2: 1     2723    1.30%
      0     0     2206.9406    26     2178.9578 UserPurge2: 1     2757    1.28%
      0     0     2206.8154    27     2178.9578 UserPurge2: 1     2771    1.28%
      0     0     2206.5806    26     2178.9578 UserPurge2: 1     2800    1.27%
      0     0     2206.2298    25     2178.9578 UserPurge2: 1     2830    1.25%
      0     0     2206.1484    25     2178.9578 UserPurge2: 1     2857    1.25%
      0     0     2206.0584    26     2178.9578 UserPurge2: 1     2875    1.24%
      0     0     2205.9720    26     2178.9578 UserPurge2: 1     2900    1.24%
      0     0     2205.9484    27     2178.9578 UserPurge2: 1     2913    1.24%
      0     0     2205.8321    27     2178.9578 UserPurge2: 1     2942    1.23%
      0     0     2205.4271    25     2178.9578 UserPurge2: 1     2975    1.21%
      0     0     2204.8162    25     2178.9578 UserPurge2: 1     3008    1.19%
      0     0     2204.0575    25     2178.9578 UserPurge2: 1     3033    1.15%
      0     0     2203.7326    25     2178.9578 UserPurge2: 1     3057    1.14%
      0     0     2203.1911    24     2178.9578 UserPurge2: 1     3098    1.11%
      0     0     2203.0456    24     2178.9578 UserPurge2: 1     3117    1.11%
      0     0     2202.9771    24     2178.9578 UserPurge2: 1     3131    1.10%
      0     0     2202.8553    25     2178.9578 UserPurge2: 1     3154    1.10%
      0     0     2202.8087    25     2178.9578 UserPurge2: 1     3172    1.09%
      0     0     2202.7149    26     2178.9578 UserPurge2: 1     3191    1.09%
      0     0     2202.6654    26     2178.9578 UserPurge2: 1     3202    1.09%
      0     0     2202.5843    26     2178.9578 UserPurge2: 1     3213    1.08%
      0     0     2202.5296    27     2178.9578 UserPurge2: 1     3232    1.08%
      0     0     2202.4972    27     2178.9578 UserPurge2: 1     3246    1.08%
      0     0     2202.3281    27     2178.9578 UserPurge2: 1     3281    1.07%
      0     0     2202.0244    25     2178.9578 UserPurge2: 1     3315    1.06%
      0     0     2201.7693    26     2178.9578 UserPurge2: 1     3346    1.05%
      0     0     2201.6577    26     2178.9578 UserPurge2: 1     3364    1.04%
      0     0     2201.5599    26     2178.9578 UserPurge2: 1     3375    1.04%
      0     0     2201.4557    27     2178.9578 UserPurge2: 1     3399    1.03%
      0     0     2201.3770    25     2178.9578 UserPurge2: 1     3426    1.03%
      0     0     2201.3367    26     2178.9578 UserPurge2: 1     3437    1.03%
      0     0     2201.3165    27     2178.9578 UserPurge2: 1     3451    1.03%
      0     0     2201.2197    28     2178.9578 UserPurge2: 1     3485    1.02%
      0     0     2201.1334    29     2178.9578 UserPurge2: 1     3497    1.02%
      0     0     2201.0024    28     2178.9578 UserPurge2: 1     3540    1.01%
      0     0     2200.8852    29     2178.9578 UserPurge2: 1     3568    1.01%
      0     0     2200.5173    27     2178.9578 UserPurge2: 1     3606    0.99%
      0     0     2200.3730    28     2178.9578 UserPurge2: 1     3620    0.98%
      0     0     2200.3053    27     2178.9578 UserPurge2: 1     3639    0.98%
      0     0     2200.1879    27     2178.9578 UserPurge2: 1     3666    0.97%
      0     0     2200.1379    28     2178.9578 UserPurge2: 1     3682    0.97%
      0     0     2200.0921    29     2178.9578 UserPurge2: 1     3706    0.97%
      0     0     2199.9496    29     2178.9578 UserPurge2: 1     3739    0.96%
      0     0     2199.8659    28     2178.9578 UserPurge2: 1     3758    0.96%
      0     0     2199.6791    28     2178.9578 UserPurge2: 1     3784    0.95%
      0     0     2199.6549    29     2178.9578 UserPurge2: 1     3797    0.95%
      0     0     2199.5817    30     2178.9578 UserPurge2: 1     3812    0.95%
      0     0     2199.5579    31     2178.9578 UserPurge2: 1     3822    0.95%
      0     0     2199.4420    31     2178.9578 UserPurge2: 1     3854    0.94%
      0     0     2199.3698    31     2178.9578 UserPurge2: 1     3878    0.94%
      0     0     2199.2654    29     2178.9578 UserPurge2: 1     3903    0.93%
      0     0     2199.2321    29     2178.9578 UserPurge2: 1     3916    0.93%
      0     0     2199.1850    30     2178.9578 UserPurge2: 1     3928    0.93%
      0     0     2199.0954    30     2178.9578 UserPurge2: 1     3950    0.92%
      0     0     2199.0297    31     2178.9578 UserPurge2: 1     3980    0.92%
      0     0     2198.9539    31     2178.9578 UserPurge2: 1     4015    0.92%
      0     0     2198.9121    31     2178.9578 UserPurge2: 1     4037    0.92%
      0     0     2198.8925    32     2178.9578 UserPurge2: 1     4051    0.91%
      0     0     2198.8589    32     2178.9578 UserPurge2: 1     4076    0.91%
      0     0     2198.8281    33     2178.9578 UserPurge2: 1     4108    0.91%
      0     0     2198.7422    34     2178.9578 UserPurge2: 1     4135    0.91%
      0     0     2198.6734    33     2178.9578 UserPurge2: 1     4157    0.90%
      0     0     2198.4920    32     2178.9578 UserPurge2: 1     4185    0.90%
      0     0     2198.4213    30     2178.9578 UserPurge2: 1     4203    0.89%
      0     0     2198.2953    30     2178.9578 UserPurge2: 1     4226    0.89%
      0     0     2198.1688    30     2178.9578 UserPurge2: 1     4248    0.88%
      0     0     2198.0310    30     2178.9578 UserPurge2: 1     4280    0.88%
      0     0     2197.9467    31     2178.9578 UserPurge2: 1     4316    0.87%
      0     0     2197.8282    30     2178.9578 UserPurge2: 1     4351    0.87%
      0     0     2197.7961    31     2178.9578 UserPurge2: 1     4374    0.86%
      0     0     2197.7048    32     2178.9578 UserPurge2: 1     4403    0.86%
      0     0     2197.6018    32     2178.9578 UserPurge2: 1     4427    0.86%
      0     0     2197.5180    32     2178.9578 UserPurge2: 1     4444    0.85%
      0     0     2197.4264    31     2178.9578 UserPurge2: 1     4475    0.85%
      0     0     2197.2856    31     2178.9578 UserPurge2: 1     4501    0.84%
      0     0     2197.1795    31     2178.9578 UserPurge2: 1     4526    0.84%
      0     0     2197.0142    31     2178.9578 UserPurge2: 1     4551    0.83%
      0     0     2196.9293    31     2178.9578 UserPurge2: 1     4573    0.82%
      0     0     2196.8798    31     2178.9578 UserPurge2: 1     4594    0.82%
      0     0     2196.8564    32     2178.9578 UserPurge2: 1     4611    0.82%
      0     0     2196.8081    31     2178.9578 UserPurge2: 1     4651    0.82%
      0     0     2196.6895    30     2178.9578 UserPurge2: 1     4680    0.81%
      0     0     2196.6201    31     2178.9578 UserPurge2: 1     4706    0.81%
      0     0     2196.5181    30     2178.9578 UserPurge2: 1     4729    0.81%
      0     0     2196.4089    30     2178.9578 UserPurge2: 1     4767    0.80%
      0     0     2196.3371    30     2178.9578 UserPurge2: 1     4791    0.80%
      0     0     2196.0170    30     2178.9578 UserPurge2: 1     4838    0.78%
      0     0     2195.8616    29     2178.9578 UserPurge2: 1     4864    0.78%
      0     0     2195.7505    28     2178.9578 UserPurge2: 1     4892    0.77%
      0     0     2195.7355    29     2178.9578 UserPurge2: 1     4902    0.77%
      0     0     2195.6882    29     2178.9578 UserPurge2: 1     4916    0.77%
      0     0     2195.6296    30     2178.9578 UserPurge2: 1     4934    0.77%
      0     0     2195.5823    30     2178.9578 UserPurge2: 1     4951    0.76%
      0     0     2195.4670    30     2178.9578 UserPurge2: 1     4984    0.76%
      0     0     2195.4316    30     2178.9578 UserPurge2: 1     4999    0.76%
      0     0     2195.3881    29     2178.9578 UserPurge2: 1     5016    0.75%
      0     0     2195.3198    30     2178.9578 UserPurge2: 1     5044    0.75%
      0     0     2195.2739    30     2178.9578 UserPurge2: 1     5061    0.75%
      0     0     2195.2601    31     2178.9578 UserPurge2: 1     5075    0.75%
      0     0     2195.2429    32     2178.9578 UserPurge2: 1     5092    0.75%
      0     0     2195.1955    33     2178.9578 UserPurge2: 1     5125    0.75%
      0     0     2195.1631    34     2178.9578 UserPurge2: 1     5151    0.74%
      0     0     2195.0893    35     2178.9578 UserPurge2: 1     5173    0.74%
      0     0     2195.0058    34     2178.9578 UserPurge2: 1     5208    0.74%
      0     0     2194.9680    34     2178.9578 UserPurge2: 1     5240    0.73%
      0     0     2194.8682    35     2178.9578 UserPurge2: 1     5287    0.73%
      0     0     2194.8254    36     2178.9578 UserPurge2: 1     5311    0.73%
      0     0     2194.7555    36     2178.9578 UserPurge2: 1     5339    0.73%
      0     0     2194.6510    34     2178.9578 UserPurge2: 1     5388    0.72%
      0     0     2194.6114    34     2178.9578 UserPurge2: 1     5410    0.72%
      0     0     2194.5166    35     2178.9578 UserPurge2: 1     5446    0.71%
      0     0     2194.3345    34     2178.9578 UserPurge2: 1     5487    0.71%
      0     0     2194.2287    32     2178.9578 UserPurge2: 1     5516    0.70%
      0     0     2194.1232    33     2178.9578 UserPurge2: 1     5540    0.70%
      0     0     2193.9928    32     2178.9578 UserPurge2: 1     5564    0.69%
      0     0     2193.9620    31     2178.9578 UserPurge2: 1     5584    0.69%
      0     0     2193.9218    31     2178.9578 UserPurge2: 1     5606    0.69%
      0     0     2193.8766    32     2178.9578 UserPurge2: 1     5631    0.68%
*     0+    0                         2179.0457     2193.8766             0.68%
      0     0     2193.7988    31     2179.0457 UserPurge2: 1     5670    0.68%
      0     0     2193.7776    32     2179.0457 UserPurge2: 1     5690    0.68%
      0     0     2193.7365    32     2179.0457 UserPurge2: 1     5715    0.67%
      0     0     2193.7279    33     2179.0457 UserPurge2: 1     5726    0.67%
      0     0     2193.6858    34     2179.0457 UserPurge2: 1     5765    0.67%
      0     0     2193.6270    35     2179.0457 UserPurge2: 1     5795    0.67%
      0     0     2193.5852    34     2179.0457 UserPurge2: 1     5824    0.67%
      0     0     2193.5151    35     2179.0457 UserPurge2: 1     5848    0.66%
      0     0     2193.4613    34     2179.0457 UserPurge2: 1     5881    0.66%
      0     0     2193.4486    35     2179.0457 UserPurge2: 1     5901    0.66%
      0     0     2193.4186    35     2179.0457 UserPurge2: 1     5925    0.66%
      0     0     2193.3309    34     2179.0457 UserPurge2: 1     5966    0.66%
      0     0     2193.2543    34     2179.0457 UserPurge2: 1     5992    0.65%
      0     0     2193.1804    33     2179.0457 UserPurge2: 1     6028    0.65%
      0     0     2193.1609    34     2179.0457 UserPurge2: 1     6047    0.65%
      0     0     2193.1414    35     2179.0457 UserPurge2: 1     6063    0.65%
      0     0     2193.1019    36     2179.0457 UserPurge2: 1     6089    0.65%
      0     0     2193.0820    36     2179.0457 UserPurge2: 1     6112    0.64%
      0     0     2193.0503    37     2179.0457 UserPurge2: 1     6137    0.64%
      0     0     2192.9948    38     2179.0457 UserPurge2: 1     6186    0.64%
      0     0     2192.9764    38     2179.0457 UserPurge2: 1     6206    0.64%
      0     0     2192.8625    38     2179.0457 UserPurge2: 1     6243    0.63%
      0     0     2192.7234    35     2179.0457 UserPurge2: 1     6282    0.63%
      0     0     2192.6335    36     2179.0457 UserPurge2: 1     6323    0.62%
      0     0     2192.5815    35     2179.0457 UserPurge2: 1     6346    0.62%
      0     0     2192.5552    35     2179.0457 UserPurge2: 1     6363    0.62%
      0     0     2192.4576    35     2179.0457 UserPurge2: 1     6398    0.62%
*     0+    0                         2180.4298     2192.4576             0.55%
      0     0     2192.3783    34     2180.4298 UserPurge2: 1     6426    0.55%
      0     0     2192.3352    34     2180.4298 UserPurge2: 1     6452    0.55%
      0     0     2192.3180    35     2180.4298 UserPurge2: 1     6469    0.55%
      0     0     2192.2124    34     2180.4298 UserPurge2: 1     6506    0.54%
      0     0     2192.1839    35     2180.4298 UserPurge2: 1     6534    0.54%
      0     0     2192.1113    36     2180.4298 UserPurge2: 1     6570    0.54%
      0     0     2192.0300    34     2180.4298 UserPurge2: 1     6610    0.53%
      0     0     2191.9899    34     2180.4298 UserPurge2: 1     6633    0.53%
      0     0     2191.9359    35     2180.4298 UserPurge2: 1     6661    0.53%
      0     0     2191.8656    35     2180.4298 UserPurge2: 1     6684    0.52%
      0     0     2191.8229    36     2180.4298 UserPurge2: 1     6698    0.52%
      0     0     2191.7944    36     2180.4298 UserPurge2: 1     6720    0.52%
      0     0     2191.6658    33     2180.4298 UserPurge2: 1     6759    0.52%
      0     0     2191.6179    34     2180.4298 UserPurge2: 1     6780    0.51%
      0     0     2191.5519    35     2180.4298 UserPurge2: 1     6810    0.51%
      0     0     2191.4583    33     2180.4298 UserPurge2: 1     6853    0.51%
      0     0     2191.3040    31     2180.4298 UserPurge2: 1     6878    0.50%
      0     0     2191.2265    32     2180.4298 UserPurge2: 1     6897    0.50%
      0     0     2191.1804    33     2180.4298 UserPurge2: 1     6915    0.49%
      0     0     2191.1002    32     2180.4298 UserPurge2: 1     6943    0.49%
      0     0     2191.0738    32     2180.4298 UserPurge2: 1     6958    0.49%
      0     0     2190.9936    31     2180.4298 UserPurge2: 1     6977    0.48%
      0     0     2190.9580    32     2180.4298 UserPurge2: 1     6988    0.48%
      0     0     2190.9451    33     2180.4298 UserPurge2: 1     7003    0.48%
      0     0     2190.9310    34     2180.4298 UserPurge2: 1     7015    0.48%
      0     0     2190.8978    35     2180.4298 UserPurge2: 1     7047    0.48%
      0     0     2190.8400    32     2180.4298 UserPurge2: 1     7073    0.48%
      0     0     2190.8059    32     2180.4298 UserPurge2: 1     7085    0.48%
      0     0     2190.7730    32     2180.4298 UserPurge2: 1     7102    0.47%
      0     0     2190.7466    33     2180.4298 UserPurge2: 1     7131    0.47%
*     0+    0                         2180.6270     2190.7466             0.46%
      0     0     2190.7002    34     2180.6270 UserPurge2: 1     7145    0.46%
      0     0     2190.6319    33     2180.6270 UserPurge2: 1     7171    0.46%
      0     0     2190.5895    33     2180.6270 UserPurge2: 1     7193    0.46%
      0     0     2190.5796    33     2180.6270 UserPurge2: 1     7202    0.46%
*     0+    0                         2182.3200     2190.5796             0.38%
      0     0     2190.5722    34     2182.3200 UserPurge2: 1     7208    0.38%
      0     0     2190.5501    35     2182.3200 UserPurge2: 1     7225    0.38%
      0     0     2190.4906    34     2182.3200 UserPurge2: 1     7263    0.37%
      0     0     2190.4674    34     2182.3200 UserPurge2: 1     7284    0.37%
      0     0     2190.3867    33     2182.3200 UserPurge2: 1     7312    0.37%
      0     0     2190.3435    30     2182.3200 UserPurge2: 1     7329    0.37%
      0     0     2190.3264    31     2182.3200 UserPurge2: 1     7339    0.37%
      0     0     2190.3189    32     2182.3200 UserPurge2: 1     7353    0.37%
      0     0     2190.3087    33     2182.3200 UserPurge2: 1     7371    0.37%
      0     0     2190.2912    34     2182.3200 UserPurge2: 1     7400    0.37%
      0     0     2190.2749    35     2182.3200 UserPurge2: 1     7424    0.36%
      0     0     2190.2599    34     2182.3200 UserPurge2: 1     7441    0.36%
      0     0     2190.2517    35     2182.3200 UserPurge2: 1     7448    0.36%
      0     0     2190.2318    35     2182.3200 UserPurge2: 1     7465    0.36%
      0     0     2190.1934    33     2182.3200 UserPurge2: 1     7502    0.36%
      0     0     2190.1671    32     2182.3200 UserPurge2: 1     7520    0.36%
      0     0     2190.1563    33     2182.3200 UserPurge2: 1     7531    0.36%
      0     0     2190.1383    33     2182.3200 UserPurge2: 1     7548    0.36%
      0     0     2190.1223    34     2182.3200 UserPurge2: 1     7572    0.36%
      0     0     2190.1133    35     2182.3200 UserPurge2: 1     7587    0.36%
      0     0     2190.0982    36     2182.3200 UserPurge2: 1     7602    0.36%
      0     0     2190.0836    37     2182.3200 UserPurge2: 1     7624    0.36%
      0     0     2190.0750    38     2182.3200 UserPurge2: 1     7639    0.36%
      0     0     2190.0488    37     2182.3200 UserPurge2: 1     7672    0.35%
      0     0     2190.0284    38     2182.3200 UserPurge2: 1     7692    0.35%
      0     0     2189.9974    38     2182.3200 UserPurge2: 1     7711    0.35%
      0     0     2189.9847    38     2182.3200 UserPurge2: 1     7734    0.35%
      0     0     2189.9714    38     2182.3200 UserPurge2: 1     7752    0.35%
      0     0     2189.9514    38     2182.3200 UserPurge2: 1     7775    0.35%
      0     0     2189.9388    39     2182.3200 UserPurge2: 1     7800    0.35%
      0     0     2189.9250    40     2182.3200 UserPurge2: 1     7822    0.35%
      0     0     2189.9051    39     2182.3200 UserPurge2: 1     7846    0.35%
      0     0     2189.8921    39     2182.3200 UserPurge2: 1     7874    0.35%
      0     0     2189.8779    40     2182.3200 UserPurge2: 1     7902    0.35%
      0     0     2189.8127    40     2182.3200 UserPurge2: 1     7937    0.34%
      0     0     2189.7698    39     2182.3200 UserPurge2: 1     7975    0.34%
      0     0     2189.7406    38     2182.3200 UserPurge2: 1     8001    0.34%
      0     0     2189.7036    37     2182.3200 UserPurge2: 1     8020    0.34%
      0     0     2189.6730    38     2182.3200 UserPurge2: 1     8038    0.34%
      0     0     2189.6369    37     2182.3200 UserPurge2: 1     8070    0.34%
      0     0     2189.5972    37     2182.3200 UserPurge2: 1     8106    0.33%
      0     0     2189.5833    38     2182.3200 UserPurge2: 1     8123    0.33%
      0     0     2189.5672    38     2182.3200 UserPurge2: 1     8149    0.33%
      0     0     2189.5560    39     2182.3200 UserPurge2: 1     8168    0.33%
      0     0     2189.5448    40     2182.3200 UserPurge2: 1     8189    0.33%
      0     0     2189.5099    40     2182.3200 UserPurge2: 1     8228    0.33%
      0     0     2189.4953    41     2182.3200 UserPurge2: 1     8250    0.33%
      0     0     2189.4645    42     2182.3200 UserPurge2: 1     8276    0.33%
      0     0     2189.4398    42     2182.3200 UserPurge2: 1     8313    0.33%
      0     0     2189.4155    42     2182.3200 UserPurge2: 1     8337    0.33%
      0     0     2189.3764    41     2182.3200 UserPurge2: 1     8369    0.32%
      0     0     2189.3623    41     2182.3200 UserPurge2: 1     8387    0.32%
      0     0     2189.3317    42     2182.3200 UserPurge2: 1     8414    0.32%
      0     0     2189.2912    40     2182.3200 UserPurge2: 1     8456    0.32%
      0     0     2189.2254    38     2182.3200 UserPurge2: 1     8500    0.32%
      0     0     2189.1914    38     2182.3200 UserPurge2: 1     8518    0.31%
      0     0     2189.1701    37     2182.3200 UserPurge2: 1     8541    0.31%
      0     0     2189.1517    38     2182.3200 UserPurge2: 1     8562    0.31%
      0     0     2189.1425    39     2182.3200 UserPurge2: 1     8580    0.31%
      0     0     2189.1374    40     2182.3200 UserPurge2: 1     8591    0.31%
      0     0     2189.1310    41     2182.3200 UserPurge2: 1     8616    0.31%
      0     0     2189.1235    42     2182.3200 UserPurge2: 1     8640    0.31%
      0     0     2189.1169    43     2182.3200 UserPurge2: 1     8660    0.31%
      0     0     2189.1007    41     2182.3200 UserPurge2: 1     8702    0.31%
      0     0     2189.0838    42     2182.3200 UserPurge2: 1     8736    0.31%
      0     0     2189.0554    41     2182.3200 UserPurge2: 1     8775    0.31%
      0     0     2188.9806    40     2182.3200 UserPurge2: 1     8826    0.31%
      0     0     2188.9676    41     2182.3200 UserPurge2: 1     8843    0.30%
      0     0     2188.9334    42     2182.3200 UserPurge2: 1     8867    0.30%
      0     0     2188.8817    40     2182.3200 UserPurge2: 1     8913    0.30%
      0     0     2188.7817    39     2182.3200 UserPurge2: 1     8954    0.30%
      0     0     2188.7396    39     2182.3200 UserPurge2: 1     8982    0.29%
      0     0     2188.7125    40     2182.3200 UserPurge2: 1     9010    0.29%
      0     0     2188.6816    41     2182.3200 UserPurge2: 1     9042    0.29%
      0     0     2188.6637    41     2182.3200 UserPurge2: 1     9063    0.29%
      0     0     2188.6290    42     2182.3200 UserPurge2: 1     9098    0.29%
      0     0     2188.5974    42     2182.3200 UserPurge2: 1     9130    0.29%
      0     0     2188.5818    41     2182.3200 UserPurge2: 1     9155    0.29%
      0     0     2188.5432    42     2182.3200 UserPurge2: 1     9186    0.29%
      0     0     2188.5217    41     2182.3200 UserPurge2: 1     9205    0.28%
      0     0     2188.5036    42     2182.3200 UserPurge2: 1     9229    0.28%
      0     0     2188.4741    43     2182.3200 UserPurge2: 1     9261    0.28%
      0     0     2188.4089    40     2182.3200 UserPurge2: 1     9315    0.28%
      0     0     2188.3864    41     2182.3200 UserPurge2: 1     9343    0.28%
      0     0     2188.3328    40     2182.3200 UserPurge2: 1     9387    0.28%
      0     0     2188.2888    40     2182.3200 UserPurge2: 1     9424    0.27%
      0     0     2188.2694    41     2182.3200 UserPurge2: 1     9448    0.27%
      0     0     2188.2634    41     2182.3200 UserPurge2: 1     9466    0.27%
      0     0     2188.2446    42     2182.3200 UserPurge2: 1     9498    0.27%
      0     0     2188.2323    41     2182.3200 UserPurge2: 1     9519    0.27%
      0     0     2188.2196    42     2182.3200 UserPurge2: 1     9542    0.27%
      0     0     2188.1958    43     2182.3200 UserPurge2: 1     9572    0.27%
      0     0     2188.1447    42     2182.3200 UserPurge2: 1     9608    0.27%
      0     0     2188.1043    42     2182.3200 UserPurge2: 1     9634    0.27%
      0     0     2188.0376    41     2182.3200 UserPurge2: 1     9672    0.26%
      0     0     2188.0324    42     2182.3200 UserPurge2: 1     9687    0.26%
      0     0     2188.0226    43     2182.3200 UserPurge2: 1     9709    0.26%
      0     0     2188.0092    44     2182.3200 UserPurge2: 1     9727    0.26%
      0     0     2187.9873    43     2182.3200 UserPurge2: 1     9740    0.26%
      0     0     2187.9668    42     2182.3200 UserPurge2: 1     9768    0.26%
      0     0     2187.9508    42     2182.3200 UserPurge2: 1     9790    0.26%
      0     0     2187.9326    42     2182.3200 UserPurge2: 1     9818    0.26%
      0     0     2187.9223    42     2182.3200 UserPurge2: 1     9839    0.26%
      0     0     2187.9129    42     2182.3200 UserPurge2: 1     9866    0.26%
      0     0     2187.9001    42     2182.3200 UserPurge2: 1     9885    0.26%
      0     0     2187.8832    43     2182.3200 UserPurge2: 1     9911    0.25%
      0     0     2187.8728    43     2182.3200 UserPurge2: 1     9934    0.25%
      0     0     2187.8681    44     2182.3200 UserPurge2: 1     9952    0.25%
      0     0     2187.8545    45     2182.3200 UserPurge2: 1     9979    0.25%
      0     0     2187.8354    45     2182.3200 UserPurge2: 1     9998    0.25%
      0     0     2187.7970    42     2182.3200 UserPurge2: 1    10041    0.25%
      0     0     2187.7277    41     2182.3200 UserPurge2: 1    10086    0.25%
      0     0     2187.7004    41     2182.3200 UserPurge2: 1    10109    0.25%
      0     0     2187.6721    39     2182.3200 UserPurge2: 1    10134    0.25%
      0     0     2187.6440    39     2182.3200 UserPurge2: 1    10166    0.24%
      0     0     2187.6143    39     2182.3200 UserPurge2: 1    10186    0.24%
      0     0     2187.5924    39     2182.3200 UserPurge2: 1    10211    0.24%
      0     0     2187.5402    39     2182.3200 UserPurge2: 1    10234    0.24%
      0     0     2187.5192    38     2182.3200 UserPurge2: 1    10253    0.24%
      0     0     2187.5140    39     2182.3200 UserPurge2: 1    10266    0.24%
*     0+    0                         2182.3259     2187.5140             0.24%
      0     0     2187.5081    40     2182.3259 UserPurge2: 1    10279    0.24%
      0     0     2187.4973    39     2182.3259 UserPurge2: 1    10302    0.24%
*     0+    0                         2183.5873     2187.4973             0.18%

Repeating presolve.
Tried aggregator 1 time.
MIP Presolve eliminated 0 rows and 223 columns.
Reduced MIP has 1 rows, 578 columns, and 577 nonzeros.
Reduced MIP has 577 binaries, 0 generals, 0 SOSs, and 0 indicators.
Presolve time = 0.00 sec. (0.22 ticks)
Probing time = 0.00 sec. (0.06 ticks)
Tried aggregator 1 time.
Reduced MIP has 1 rows, 578 columns, and 577 nonzeros.
Reduced MIP has 577 binaries, 0 generals, 0 SOSs, and 0 indicators.
Presolve time = 0.00 sec. (0.18 ticks)
Represolve time = 0.08 sec. (32.38 ticks)
Probing time = 0.00 sec. (0.06 ticks)
MIP emphasis: balance optimality and feasibility.
MIP search method: dynamic search.
Parallel mode: none, using 1 thread.
Root relaxation solution time = 0.01 sec. (18.57 ticks)

        Nodes                                         Cuts/
   Node  Left     Objective  IInf  Best Integer    Best Bound    ItCnt     Gap

*     0+    0                         2183.5873     2187.4973             0.18%
      0     0     2187.4973    39     2183.5873     2187.4973    10467    0.18%
      0     0     2187.4735    40     2183.5873 UserPurge2: 1    10503    0.18%
      0     0     2187.4459    38     2183.5873 UserPurge2: 1    10531    0.18%
      0     0     2187.4359    38     2183.5873 UserPurge2: 1    10543    0.18%
      0     0     2187.4293    38     2183.5873 UserPurge2: 1    10558    0.18%
      0     0     2187.4168    39     2183.5873 UserPurge2: 1    10573    0.18%
      0     0     2187.4128    40     2183.5873 UserPurge2: 1    10584    0.18%
      0     2     2187.4128    40     2183.5873     2187.4117    10584    0.18%
Elapsed time = 31.38 sec. (4435.40 ticks, tree = 0.01 MB, solutions = 7)
*     1     1      integral     0     2184.0000     2187.4117    24741    0.16%
      1     1     2184.0000     0     2184.0000     2187.4102    24741    0.16%

User cuts applied:  401

Root node processing (before b&c):
  Real time             =   31.38 sec. (4436.03 ticks)
Sequential b&c:
  Real time             =   13.36 sec. (3790.77 ticks)
                          ------------
Total (root+branch&cut) =   44.74 sec. (8226.80 ticks)
@Parameters: 
is_S_cut                                true
is_add_all_yinF                         true
is_start_value                          true
is_usercut                              true
is_visualization                        false
uc_only_rootnode                        false

data                                    Qi
fn                                      data/Qi/instance_800_800.csv
mode                                    NewSubmodular
solver                                  cplex

p                                       10
r                                       10

EPS                                     1.0e-06
EPS_vio                                 1.0e-04
beta                                    0.10
gap                                     0.00
nodelimit                               Inf
timelimit                               7200.00


@PrintInfos
ItCnt: 25051
Current gap: 0.00 %
Termination Status: OPTIMAL
Primal Status: FEASIBLE_POINT
Solve Time: 44.74 sec
Objective Value: 2184.000000
Number of Nodes:      3

CutInfo: [phase] num / time (sec) 
ZLP             [phase1]     0 / 0.00 [rLC]     0 / 0.00 [rUC]     0 / 0.00 [sLC]     0 / 0.00 [sUC]     0 / 0.00 
OldSubmodular   [phase1]     0 / 0.00 [rLC]     0 / 0.00 [rUC]     0 / 0.00 [sLC]     0 / 0.00 [sUC]     0 / 0.00 
NewSubmodular   [phase1]     0 / 0.00 [rLC]   101 / 14.13 [rUC]   426 / 12.12 [sLC]     0 / 1.23 [sUC]   360 / 9.77 
PMP             [phase1]     0 / 0.00 [rLC]     8 / 10.86 [rUC]     0 / 0.00 [sLC]     1 / 1.22 [sUC]     0 / 0.00 
Separation Round: [phase1] 0  [rLC] 108  [rUC] 426  [sLC] 1  [sUC] 360
Root Best Bound 2184.000000
Root Best Integer: 2184.000000
Best Bound: 2184.000000
Best Integer: 2184.000000

